\ Generated by MPModelProtoExporter
\   Name             : 
\   Format           : Free
\   Constraints      : 24
\   Variables        : 24
\     Binary         : 0
\     Integer        : 24
\     Continuous     : 0
Minimize
 Obj: +1 x[0] +1 x[1] +1 x[2] +1 x[3] +1 x[4] +1 x[5] +1 x[6] +1 x[7] +1 x[8] +1 x[9] +1 x[10] +1 x[11] +1 x[12] +1 x[13] +1 x[14] +1 x[15] +1 x[16] +1 x[17] +1 x[18] +1 x[19] +1 x[20] +1 x[21] +1 x[22] +1 x[23] 
Subject to
 auto_c_000000000: +1 x[0] +1 x[16] +1 x[17] +1 x[18] +1 x[19] +1 x[21] +1 x[22] +1 x[23]  >= 2
 auto_c_000000001: +1 x[0] +1 x[1] +1 x[17] +1 x[18] +1 x[19] +1 x[20] +1 x[22] +1 x[23]  >= 2
 auto_c_000000002: +1 x[0] +1 x[1] +1 x[2] +1 x[18] +1 x[19] +1 x[20] +1 x[21] +1 x[23]  >= 2
 auto_c_000000003: +1 x[0] +1 x[1] +1 x[2] +1 x[3] +1 x[19] +1 x[20] +1 x[21] +1 x[22]  >= 2
 auto_c_000000004: +1 x[1] +1 x[2] +1 x[3] +1 x[4] +1 x[20] +1 x[21] +1 x[22] +1 x[23]  >= 2
 auto_c_000000005: +1 x[0] +1 x[2] +1 x[3] +1 x[4] +1 x[5] +1 x[21] +1 x[22] +1 x[23]  >= 2
 auto_c_000000006: +1 x[0] +1 x[1] +1 x[3] +1 x[4] +1 x[5] +1 x[6] +1 x[22] +1 x[23]  >= 8
 auto_c_000000007: +1 x[0] +1 x[1] +1 x[2] +1 x[4] +1 x[5] +1 x[6] +1 x[7] +1 x[23]  >= 8
 auto_c_000000008: +1 x[0] +1 x[1] +1 x[2] +1 x[3] +1 x[5] +1 x[6] +1 x[7] +1 x[8]  >= 8
 auto_c_000000009: +1 x[1] +1 x[2] +1 x[3] +1 x[4] +1 x[6] +1 x[7] +1 x[8] +1 x[9]  >= 8
 auto_c_000000010: +1 x[2] +1 x[3] +1 x[4] +1 x[5] +1 x[7] +1 x[8] +1 x[9] +1 x[10]  >= 4
 auto_c_000000011: +1 x[3] +1 x[4] +1 x[5] +1 x[6] +1 x[8] +1 x[9] +1 x[10] +1 x[11]  >= 4
 auto_c_000000012: +1 x[4] +1 x[5] +1 x[6] +1 x[7] +1 x[9] +1 x[10] +1 x[11] +1 x[12]  >= 3
 auto_c_000000013: +1 x[5] +1 x[6] +1 x[7] +1 x[8] +1 x[10] +1 x[11] +1 x[12] +1 x[13]  >= 3
 auto_c_000000014: +1 x[6] +1 x[7] +1 x[8] +1 x[9] +1 x[11] +1 x[12] +1 x[13] +1 x[14]  >= 3
 auto_c_000000015: +1 x[7] +1 x[8] +1 x[9] +1 x[10] +1 x[12] +1 x[13] +1 x[14] +1 x[15]  >= 3
 auto_c_000000016: +1 x[8] +1 x[9] +1 x[10] +1 x[11] +1 x[13] +1 x[14] +1 x[15] +1 x[16]  >= 6
 auto_c_000000017: +1 x[9] +1 x[10] +1 x[11] +1 x[12] +1 x[14] +1 x[15] +1 x[16] +1 x[17]  >= 6
 auto_c_000000018: +1 x[10] +1 x[11] +1 x[12] +1 x[13] +1 x[15] +1 x[16] +1 x[17] +1 x[18]  >= 5
 auto_c_000000019: +1 x[11] +1 x[12] +1 x[13] +1 x[14] +1 x[16] +1 x[17] +1 x[18] +1 x[19]  >= 5
 auto_c_000000020: +1 x[12] +1 x[13] +1 x[14] +1 x[15] +1 x[17] +1 x[18] +1 x[19] +1 x[20]  >= 5
 auto_c_000000021: +1 x[13] +1 x[14] +1 x[15] +1 x[16] +1 x[18] +1 x[19] +1 x[20] +1 x[21]  >= 5
 auto_c_000000022: +1 x[14] +1 x[15] +1 x[16] +1 x[17] +1 x[19] +1 x[20] +1 x[21] +1 x[22]  >= 3
 auto_c_000000023: +1 x[15] +1 x[16] +1 x[17] +1 x[18] +1 x[20] +1 x[21] +1 x[22] +1 x[23]  >= 3
Bounds
 0 <= x[0] <= inf
 0 <= x[1] <= inf
 0 <= x[2] <= inf
 0 <= x[3] <= inf
 0 <= x[4] <= inf
 0 <= x[5] <= inf
 0 <= x[6] <= inf
 0 <= x[7] <= inf
 0 <= x[8] <= inf
 0 <= x[9] <= inf
 0 <= x[10] <= inf
 0 <= x[11] <= inf
 0 <= x[12] <= inf
 0 <= x[13] <= inf
 0 <= x[14] <= inf
 0 <= x[15] <= inf
 0 <= x[16] <= inf
 0 <= x[17] <= inf
 0 <= x[18] <= inf
 0 <= x[19] <= inf
 0 <= x[20] <= inf
 0 <= x[21] <= inf
 0 <= x[22] <= inf
 0 <= x[23] <= inf
Generals
 x[0]
 x[1]
 x[2]
 x[3]
 x[4]
 x[5]
 x[6]
 x[7]
 x[8]
 x[9]
 x[10]
 x[11]
 x[12]
 x[13]
 x[14]
 x[15]
 x[16]
 x[17]
 x[18]
 x[19]
 x[20]
 x[21]
 x[22]
 x[23]
End
